24 4
59 26 45 87 12 32 84 55 37 97 16 74 10 35 35 98 18 44 74 64 84 10 58 23
54 65 46 64 27 73 77 29 50 25 17 15 38 96 64 93 21 12 92 95 49 44 51 12
25 54 75 43 29 54 33 10 34 68 53 59 65 28 46 34 25 46 39 81 36 93 23 16
94 66 86 73 64 39 31 20 63 88 20 22 82 79 78 20 69 78 67 13 60 38 13 89
